/* OBJECTIVE FUNCTION */

Min: 622XA1 + 614XA2 + 630XA3 + 641XB1 + 645XB2 + 649XB3 + 0XAD + 0XBD;

/* CONSTRAINTS */
  
XA1 + XA2 + XA3 + XAD = 100;
XB1 + XB2 + XB3 + XBD = 120;
XA1 + XB1 = 80;
XA2 + XB2 = 60;
XA3 + XB3 = 70;
XAD + XBD = 10;